; benchmark generated from python API
(set-info :status unknown)
(declare-fun x_months () Int)
(declare-fun x_beta () Int)
(declare-fun y_months () Int)
(declare-fun y_beta () Int)
(assert
 (>= x_months (- 1202)))
(assert
 (<= x_months 1209))
(assert
 (>= x_beta 0))
(assert
 (let ((?x2963 (div (- (+ x_months (+ (* 2000 12) 3)) 1) 12)))
 (let ((?x11 (+ (* 2000 12) 3)))
 (let ((?x2759 (+ x_months ?x11)))
 (let ((?x617 (- ?x2759 (* ?x2963 12))))
 (let ((?x448 (ite (or (= ?x617 4) (= ?x617 6) (= ?x617 9) (= ?x617 11)) 30 31)))
 (let (($x1313 (or (and (= (mod ?x2963 4) 0) (and (distinct (mod ?x2963 100) 0) true)) (= (mod ?x2963 400) 0))))
 (< x_beta (ite (= ?x617 2) (ite $x1313 29 28) ?x448)))))))))
(assert
 (>= y_months (- 1202)))
(assert
 (<= y_months 1209))
(assert
 (>= y_beta 0))
(assert
 (let ((?x1890 (div (- (+ y_months (+ (* 2000 12) 3)) 1) 12)))
 (let ((?x11 (+ (* 2000 12) 3)))
 (let ((?x1643 (+ y_months ?x11)))
 (let ((?x581 (- ?x1643 (* ?x1890 12))))
 (let ((?x3979 (ite (or (= ?x581 4) (= ?x581 6) (= ?x581 9) (= ?x581 11)) 30 31)))
 (let (($x3658 (or (and (= (mod ?x1890 4) 0) (and (distinct (mod ?x1890 100) 0) true)) (= (mod ?x1890 400) 0))))
 (< y_beta (ite (= ?x581 2) (ite $x3658 29 28) ?x3979)))))))))
(assert
 (let (($x479 (= x_months (- (+ (* 2020 12) 2) (+ (* 2000 12) 3)))))
 (and $x479 (= 28 x_beta))))
(assert
 (let ((?x835 (+ x_beta 1)))
 (let ((?x1802 (div (- (+ (+ x_months 12) (+ (* 2000 12) 3)) 1) 12)))
 (let ((?x11 (+ (* 2000 12) 3)))
 (let ((?x1747 (+ (+ x_months 12) ?x11)))
 (let ((?x3898 (- ?x1747 (* ?x1802 12))))
 (let ((?x1044 (ite (or (= ?x3898 4) (= ?x3898 6) (= ?x3898 9) (= ?x3898 11)) 30 31)))
 (let (($x3886 (or (and (= (mod ?x1802 4) 0) (and (distinct (mod ?x1802 100) 0) true)) (= (mod ?x1802 400) 0))))
 (let ((?x3393 (ite (= ?x3898 2) (ite $x3886 29 28) ?x1044)))
 (let ((?x1000 (ite (> 1 ?x835) 1 (ite (> ?x835 ?x3393) ?x3393 ?x835))))
 (let ((?x418 (ite (> 1 ?x1000) 1 (ite (> ?x1000 ?x3393) ?x3393 ?x1000))))
 (let ((?x321 (ite (= 2 ?x3898) (ite $x3886 31 31) (ite (= 1 ?x3898) (ite $x3886 0 0) 0))))
 (let ((?x3788 (ite (= 4 ?x3898) (ite $x3886 91 90) (ite (= 3 ?x3898) (ite $x3886 60 59) ?x321))))
 (let ((?x1468 (ite (= 6 ?x3898) (ite $x3886 152 151) (ite (= 5 ?x3898) (ite $x3886 121 120) ?x3788))))
 (let ((?x3531 (ite (= 8 ?x3898) (ite $x3886 213 212) (ite (= 7 ?x3898) (ite $x3886 182 181) ?x1468))))
 (let ((?x3218 (ite (= 10 ?x3898) (ite $x3886 274 273) (ite (= 9 ?x3898) (ite $x3886 244 243) ?x3531))))
 (let ((?x1836 (ite (= 12 ?x3898) (ite $x3886 335 334) (ite (= 11 ?x3898) (ite $x3886 305 304) ?x3218))))
 (let ((?x3791 (- (+ (* 365 (- ?x1802 1)) (div (- ?x1802 1) 4)) (div (- ?x1802 1) 100))))
 (let ((?x1894 (- (+ (+ (+ ?x3791 (div (- ?x1802 1) 400)) ?x1836) (- ?x418 1)) 730179)))
 (let ((?x1332 (+ (+ ?x1894 0) 730179)))
 (let ((?x2719 (mod ?x1332 146097)))
 (let ((?x3691 (div ?x2719 36524)))
 (let ((?x2506 (ite (<= 4 ?x3691) 3 ?x3691)))
 (let ((?x1011 (- ?x2719 (* ?x2506 36524))))
 (let ((?x2682 (mod ?x1011 1461)))
 (let ((?x2233 (div ?x2682 365)))
 (let ((?x2691 (ite (<= 4 ?x2233) 3 ?x2233)))
 (let ((?x4080 (+ (+ (* (div ?x1332 146097) 400) (* ?x2506 100)) (* (div ?x1011 1461) 4))))
 (let ((?x1155 (+ (+ ?x4080 ?x2691) 1)))
 (let (($x3672 (or (and (= (mod ?x1155 4) 0) (and (distinct (mod ?x1155 100) 0) true)) (= (mod ?x1155 400) 0))))
 (let ((?x1382 (- ?x2682 (* ?x2691 365))))
 (let ((?x330 (ite $x3672 31 31)))
 (let (($x523 (>= ?x1382 ?x330)))
 (let ((?x3187 (ite $x523 (+ (- ?x1382 ?x330) 1) (+ (- ?x1382 (ite $x3672 0 0)) 1))))
 (let ((?x431 (ite $x3672 60 59)))
 (let (($x238 (>= ?x1382 ?x431)))
 (let ((?x1529 (ite $x3672 91 90)))
 (let (($x3171 (>= ?x1382 ?x1529)))
 (let ((?x1597 (ite $x3171 (+ (- ?x1382 ?x1529) 1) (ite $x238 (+ (- ?x1382 ?x431) 1) ?x3187))))
 (let ((?x584 (ite $x3672 121 120)))
 (let (($x3516 (>= ?x1382 ?x584)))
 (let ((?x2210 (ite $x3672 152 151)))
 (let (($x2733 (>= ?x1382 ?x2210)))
 (let ((?x2042 (ite $x2733 (+ (- ?x1382 ?x2210) 1) (ite $x3516 (+ (- ?x1382 ?x584) 1) ?x1597))))
 (let ((?x2152 (ite $x3672 182 181)))
 (let (($x1526 (>= ?x1382 ?x2152)))
 (let ((?x2925 (ite $x3672 213 212)))
 (let (($x2323 (>= ?x1382 ?x2925)))
 (let ((?x621 (ite $x2323 (+ (- ?x1382 ?x2925) 1) (ite $x1526 (+ (- ?x1382 ?x2152) 1) ?x2042))))
 (let ((?x2748 (ite $x3672 244 243)))
 (let (($x2299 (>= ?x1382 ?x2748)))
 (let ((?x1284 (ite $x3672 274 273)))
 (let (($x284 (>= ?x1382 ?x1284)))
 (let ((?x2147 (ite $x284 (+ (- ?x1382 ?x1284) 1) (ite $x2299 (+ (- ?x1382 ?x2748) 1) ?x621))))
 (let ((?x1967 (ite $x3672 305 304)))
 (let (($x2235 (>= ?x1382 ?x1967)))
 (let ((?x770 (ite $x3672 335 334)))
 (let (($x3395 (>= ?x1382 ?x770)))
 (let ((?x2757 (ite $x3395 (+ (- ?x1382 ?x770) 1) (ite $x2235 (+ (- ?x1382 ?x1967) 1) ?x2147))))
 (let (($x3530 (= 0 0)))
 (let ((?x3265 (ite $x3516 5 (ite $x3171 4 (ite $x238 3 (ite $x523 2 1))))))
 (let ((?x1915 (ite $x2299 9 (ite $x2323 8 (ite $x1526 7 (ite $x2733 6 ?x3265))))))
 (let ((?x1601 (+ (* (ite $x3530 ?x1802 ?x1155) 12) (ite $x3530 ?x3898 (ite $x3395 12 (ite $x2235 11 (ite $x284 10 ?x1915)))))))
 (and (= y_months (- ?x1601 ?x11)) (= y_beta (- (ite $x3530 ?x418 ?x2757) 1))))))))))))))))))))))))))))))))))))))))))))))))))))))))))))))))))
(assert
 (let (($x3353 (= y_months (- (+ (* 2021 12) 2) (+ (* 2000 12) 3)))))
(not (and $x3353 (= 27 y_beta)))))
(check-sat)
